
n_res = 6;
rcap = [25, 24, 21, 17, 883, 907];
rtype = [1, 1, 1, 1, 2, 2];
n_tasks = 50;
modes =  [{1, 2, 3, 4, 5, 6}, {7, 8, 9, 10, 11, 12}, {13, 14, 15, 16, 17, 18}, {19, 20, 21, 22, 23, 24}, {25, 26, 27, 28, 29, 30}, {31, 32, 33, 34, 35, 36}, {37, 38, 39, 40, 41, 42}, {43, 44, 45, 46, 47, 48}, {49, 50, 51, 52, 53, 54}, {55, 56, 57, 58, 59, 60}, {61, 62, 63, 64, 65, 66}, {67, 68, 69, 70, 71, 72}, {73, 74, 75, 76, 77, 78}, {79, 80, 81, 82, 83, 84}, {85, 86, 87, 88, 89, 90}, {91, 92, 93, 94, 95, 96}, {97, 98, 99, 100, 101, 102}, {103, 104, 105, 106, 107, 108}, {109, 110, 111, 112, 113, 114}, {115, 116, 117, 118, 119, 120}, {121, 122, 123, 124, 125, 126}, {127, 128, 129, 130, 131, 132}, {133, 134, 135, 136, 137, 138}, {139, 140, 141, 142, 143, 144}, {145, 146, 147, 148, 149, 150}, {151, 152, 153, 154, 155, 156}, {157, 158, 159, 160, 161, 162}, {163, 164, 165, 166, 167, 168}, {169, 170, 171, 172, 173, 174}, {175, 176, 177, 178, 179, 180}, {181, 182, 183, 184, 185, 186}, {187, 188, 189, 190, 191, 192}, {193, 194, 195, 196, 197, 198}, {199, 200, 201, 202, 203, 204}, {205, 206, 207, 208, 209, 210}, {211, 212, 213, 214, 215, 216}, {217, 218, 219, 220, 221, 222}, {223, 224, 225, 226, 227, 228}, {229, 230, 231, 232, 233, 234}, {235, 236, 237, 238, 239, 240}, {241, 242, 243, 244, 245, 246}, {247, 248, 249, 250, 251, 252}, {253, 254, 255, 256, 257, 258}, {259, 260, 261, 262, 263, 264}, {265, 266, 267, 268, 269, 270}, {271, 272, 273, 274, 275, 276}, {277, 278, 279, 280, 281, 282}, {283, 284, 285, 286, 287, 288}, {289, 290, 291, 292, 293, 294}, {295, 296, 297, 298, 299, 300}];
succ =  [{17, 13, 10, 9, 8, 6}, {15, 14, 13, 10, 8}, {19, 18, 17, 15, 12}, {19, 15, 12, 11}, {20, 14, 9}, {19, 18, 15, 12}, {18, 15, 14, 12}, {27, 21, 20, 19, 18, 16}, {22, 18, 16, 15}, {27, 18, 12}, {27, 21, 20, 18}, {26, 25, 23, 22, 21, 20}, {27, 22, 21, 19}, {27, 26, 25, 22}, {27, 25, 21}, {35, 28, 26, 23}, {35, 34, 28, 25, 24}, {36, 35, 26, 23}, {35, 34, 25, 24}, {36, 35, 34, 24}, {35, 34, 24}, {35, 34, 24}, {34, 24}, {31, 30, 29}, {36, 33, 32, 31}, {34, 29}, {35, 28}, {38, 37, 36, 33}, {33, 32}, {39, 32}, {44, 41, 39, 38}, {44, 38, 37}, {44, 41, 40, 39}, {44, 41, 40, 39}, {50, 49, 44, 43, 42, 41}, {50, 49, 44, 43, 42, 41}, {50, 43, 42, 41}, {43, 42, 40}, {50, 49, 43, 42}, {49, 48, 47, 45}, {47, 45}, {48, 46}, {47, 46}, {47, 46}, {46}, {}, {}, {}, {}, {}];
n_opt = 300;
dur = [1, 19, 21, 22, 23, 29, 2, 5, 9, 17, 19, 23, 6, 13, 15, 18, 19, 29, 5, 9, 12, 13, 16, 21, 3, 7, 8, 12, 15, 21, 13, 15, 18, 20, 21, 26, 4, 5, 6, 16, 25, 26, 2, 5, 8, 19, 21, 27, 5, 6, 10, 18, 20, 23, 3, 5, 6, 8, 24, 26, 5, 6, 19, 21, 26, 30, 9, 10, 12, 14, 21, 30, 6, 7, 11, 12, 18, 25, 5, 13, 14, 15, 16, 18, 4, 7, 12, 15, 18, 19, 11, 12, 21, 22, 23, 30, 1, 2, 5, 28, 29, 30, 1, 2, 3, 16, 17, 29, 3, 4, 10, 11, 23, 26, 1, 3, 4, 16, 17, 23, 1, 6, 15, 21, 23, 25, 1, 8, 9, 15, 26, 28, 1, 16, 19, 20, 29, 30, 4, 5, 16, 20, 29, 30, 6, 9, 15, 24, 27, 29, 10, 12, 13, 19, 21, 22, 2, 5, 7, 13, 15, 20, 9, 14, 16, 17, 25, 26, 2, 8, 17, 18, 19, 23, 17, 18, 19, 21, 26, 28, 5, 7, 13, 17, 25, 28, 2, 16, 17, 26, 29, 30, 3, 14, 15, 16, 17, 23, 1, 10, 12, 14, 21, 23, 2, 3, 4, 16, 24, 30, 9, 14, 15, 16, 21, 23, 6, 8, 20, 23, 25, 27, 3, 10, 16, 17, 19, 24, 5, 6, 9, 12, 13, 21, 3, 8, 10, 18, 21, 24, 6, 7, 11, 14, 17, 19, 5, 6, 12, 16, 18, 21, 3, 4, 15, 16, 19, 22, 11, 15, 18, 23, 24, 28, 11, 14, 19, 22, 26, 27, 5, 14, 18, 22, 23, 25, 3, 8, 15, 19, 21, 30, 2, 5, 12, 13, 17, 20, 12, 13, 18, 24, 28, 29, 5, 10, 13, 17, 20, 21];
rreq = [|4, 4, 4, 4, 4, 4, 4, 4, 4, 4, 4, 4, 4, 4, 4, 4, 4, 4, 3, 3, 3, 2, 1, 1, 5, 4, 4, 3, 3, 2, 4, 3, 3, 2, 2, 2, 3, 3, 3, 3, 3, 3, 4, 4, 4, 4, 4, 4, 3, 3, 3, 3, 3, 3, 4, 3, 3, 3, 2, 2, 4, 4, 4, 4, 4, 4, 1, 1, 1, 1, 1, 1, 5, 5, 5, 5, 5, 5, 4, 3, 3, 2, 2, 1, 5, 4, 3, 3, 2, 2, 4, 4, 4, 4, 4, 4, 2, 2, 2, 2, 1, 1, 4, 4, 3, 3, 3, 2, 5, 3, 3, 3, 2, 1, 5, 4, 4, 3, 2, 2, 5, 3, 3, 3, 2, 1, 5, 4, 4, 3, 3, 3, 1, 1, 1, 1, 1, 1, 5, 3, 3, 3, 1, 1, 3, 3, 3, 3, 3, 3, 3, 3, 3, 3, 3, 3, 4, 4, 4, 3, 3, 3, 3, 3, 3, 3, 3, 3, 1, 1, 1, 1, 1, 1, 5, 4, 4, 3, 3, 3, 3, 3, 3, 2, 2, 1, 4, 3, 3, 2, 2, 2, 2, 2, 2, 2, 2, 2, 5, 4, 4, 4, 3, 3, 1, 1, 1, 1, 1, 1, 5, 4, 4, 4, 4, 4, 5, 4, 4, 4, 4, 4, 4, 4, 4, 3, 3, 3, 3, 2, 2, 2, 2, 2, 4, 4, 4, 3, 3, 3, 5, 4, 3, 3, 3, 2, 4, 3, 3, 3, 2, 2, 4, 4, 3, 3, 1, 1, 4, 4, 4, 4, 4, 4, 4, 3, 3, 2, 2, 2, 4, 3, 3, 3, 2, 2, 4, 4, 4, 4, 4, 4, 4, 4, 4, 4, 3, 3, 2, 2, 2, 1, 1, 1, 5, 4, 3, 3, 3, 2
 |1, 1, 1, 1, 1, 1, 3, 3, 3, 2, 1, 1, 3, 3, 3, 2, 1, 1, 1, 1, 1, 1, 1, 1, 4, 4, 3, 3, 2, 2, 5, 4, 4, 3, 3, 2, 5, 4, 4, 4, 3, 3, 4, 3, 2, 2, 2, 1, 2, 1, 1, 1, 1, 1, 5, 4, 3, 3, 1, 1, 3, 3, 2, 2, 2, 1, 4, 3, 3, 3, 2, 2, 4, 3, 2, 2, 2, 1, 2, 2, 2, 1, 1, 1, 4, 4, 4, 3, 3, 2, 5, 4, 3, 3, 3, 2, 4, 3, 3, 3, 3, 3, 2, 1, 1, 1, 1, 1, 4, 3, 3, 2, 2, 1, 4, 3, 3, 2, 2, 2, 5, 4, 3, 3, 2, 2, 1, 1, 1, 1, 1, 1, 4, 4, 4, 4, 4, 4, 1, 1, 1, 1, 1, 1, 3, 3, 2, 2, 1, 1, 4, 3, 3, 3, 1, 1, 5, 3, 3, 2, 1, 1, 4, 3, 2, 2, 2, 1, 4, 3, 3, 3, 2, 2, 4, 4, 4, 3, 3, 3, 4, 3, 3, 3, 3, 3, 5, 4, 4, 4, 4, 4, 4, 4, 4, 4, 3, 3, 4, 4, 4, 4, 4, 4, 4, 3, 3, 2, 2, 1, 2, 1, 1, 1, 1, 1, 4, 4, 4, 4, 4, 4, 5, 5, 5, 5, 5, 5, 5, 4, 4, 4, 4, 4, 4, 4, 4, 4, 3, 3, 4, 3, 3, 2, 2, 2, 3, 3, 3, 3, 3, 3, 4, 3, 3, 3, 3, 3, 2, 2, 2, 2, 2, 2, 4, 4, 4, 3, 3, 2, 3, 3, 3, 3, 3, 3, 3, 3, 3, 3, 3, 3, 3, 3, 3, 3, 3, 3, 2, 2, 2, 2, 2, 2, 3, 3, 3, 2, 2, 2
 |2, 1, 1, 1, 1, 1, 1, 1, 1, 1, 1, 1, 4, 3, 2, 2, 1, 1, 4, 4, 4, 4, 4, 4, 3, 3, 3, 3, 3, 3, 4, 3, 3, 3, 3, 3, 5, 4, 4, 3, 3, 2, 3, 2, 2, 2, 1, 1, 3, 3, 3, 3, 3, 3, 2, 1, 1, 1, 1, 1, 4, 4, 4, 4, 3, 3, 4, 4, 4, 4, 4, 4, 1, 1, 1, 1, 1, 1, 3, 2, 2, 1, 1, 1, 3, 2, 2, 2, 1, 1, 3, 2, 2, 2, 1, 1, 3, 3, 3, 3, 2, 2, 5, 5, 5, 5, 5, 5, 4, 4, 4, 3, 3, 3, 4, 3, 3, 3, 2, 2, 2, 1, 1, 1, 1, 1, 4, 4, 4, 4, 4, 4, 5, 5, 5, 5, 5, 5, 3, 3, 3, 3, 3, 3, 4, 4, 4, 4, 4, 4, 5, 4, 4, 4, 4, 4, 5, 4, 4, 4, 4, 4, 3, 3, 3, 2, 2, 2, 3, 3, 3, 3, 3, 3, 4, 4, 4, 3, 2, 2, 3, 2, 2, 1, 1, 1, 1, 1, 1, 1, 1, 1, 3, 3, 3, 2, 2, 2, 5, 5, 5, 5, 5, 5, 2, 1, 1, 1, 1, 1, 5, 4, 4, 3, 3, 3, 2, 2, 2, 2, 1, 1, 3, 2, 2, 2, 1, 1, 3, 3, 3, 3, 3, 3, 2, 1, 1, 1, 1, 1, 4, 3, 3, 2, 1, 1, 3, 2, 2, 1, 1, 1, 3, 3, 3, 3, 3, 3, 3, 2, 2, 2, 2, 2, 4, 4, 4, 3, 3, 3, 4, 4, 4, 4, 4, 4, 4, 3, 2, 2, 1, 1, 4, 4, 4, 4, 4, 4, 1, 1, 1, 1, 1, 1, 3, 2, 2, 2, 2, 2
 |4, 4, 3, 3, 2, 2, 2, 2, 2, 2, 2, 2, 4, 4, 4, 4, 3, 3, 2, 2, 2, 2, 2, 2, 1, 1, 1, 1, 1, 1, 3, 3, 3, 2, 2, 2, 1, 1, 1, 1, 1, 1, 2, 2, 2, 2, 2, 2, 2, 2, 2, 2, 2, 2, 3, 3, 3, 3, 3, 3, 4, 4, 4, 3, 3, 3, 4, 4, 4, 4, 4, 4, 4, 4, 4, 3, 3, 3, 2, 2, 2, 2, 2, 2, 3, 3, 3, 3, 3, 3, 4, 4, 4, 3, 3, 2, 5, 4, 4, 3, 3, 3, 4, 4, 4, 4, 4, 4, 2, 2, 2, 2, 2, 2, 1, 1, 1, 1, 1, 1, 4, 4, 4, 4, 4, 4, 3, 2, 2, 1, 1, 1, 3, 3, 3, 3, 2, 2, 4, 3, 3, 2, 1, 1, 2, 2, 2, 2, 2, 2, 2, 1, 1, 1, 1, 1, 3, 2, 2, 2, 2, 2, 1, 1, 1, 1, 1, 1, 4, 3, 3, 2, 1, 1, 2, 2, 2, 2, 2, 2, 2, 2, 2, 2, 2, 2, 2, 2, 2, 2, 2, 2, 2, 2, 2, 2, 2, 2, 4, 4, 4, 4, 4, 4, 2, 2, 2, 2, 2, 2, 4, 3, 3, 2, 2, 2, 4, 3, 3, 3, 3, 3, 4, 4, 4, 4, 4, 4, 2, 2, 2, 1, 1, 1, 3, 2, 2, 2, 2, 2, 3, 3, 3, 2, 1, 1, 1, 1, 1, 1, 1, 1, 3, 3, 3, 3, 3, 3, 5, 3, 3, 2, 2, 1, 1, 1, 1, 1, 1, 1, 5, 5, 5, 5, 5, 5, 3, 3, 3, 3, 2, 2, 3, 2, 2, 2, 2, 2, 5, 4, 4, 4, 3, 3, 4, 4, 4, 4, 4, 4
 |30, 25, 19, 16, 11, 6, 15, 12, 12, 9, 6, 6, 28, 25, 23, 22, 20, 17, 20, 17, 16, 9, 9, 3, 19, 17, 16, 15, 15, 14, 28, 24, 22, 20, 14, 12, 27, 24, 19, 12, 11, 6, 17, 14, 13, 10, 5, 4, 12, 11, 9, 7, 4, 2, 27, 25, 24, 23, 22, 21, 29, 22, 17, 12, 11, 4, 28, 27, 27, 27, 26, 26, 26, 22, 18, 13, 11, 8, 28, 26, 25, 24, 24, 23, 21, 17, 13, 12, 5, 3, 23, 21, 17, 11, 5, 4, 18, 17, 16, 16, 16, 15, 24, 21, 19, 19, 17, 14, 23, 22, 22, 22, 21, 20, 7, 7, 7, 7, 7, 7, 26, 23, 23, 22, 19, 19, 27, 25, 24, 24, 23, 21, 19, 15, 13, 13, 11, 9, 17, 15, 12, 12, 8, 8, 19, 18, 18, 18, 17, 17, 13, 13, 13, 13, 13, 13, 18, 17, 12, 8, 7, 5, 21, 21, 20, 19, 16, 16, 12, 10, 10, 9, 8, 8, 28, 25, 17, 14, 10, 9, 19, 18, 15, 13, 10, 8, 22, 17, 14, 14, 10, 3, 4, 3, 3, 3, 3, 3, 24, 23, 23, 23, 22, 22, 29, 28, 28, 28, 27, 27, 15, 12, 11, 9, 6, 6, 23, 22, 17, 13, 13, 9, 21, 20, 17, 16, 13, 13, 7, 6, 6, 5, 5, 4, 23, 20, 17, 13, 12, 8, 20, 18, 18, 16, 15, 15, 17, 12, 10, 10, 6, 4, 17, 16, 16, 15, 15, 15, 14, 14, 14, 13, 13, 13, 29, 29, 29, 28, 28, 27, 16, 15, 12, 9, 4, 3, 27, 24, 20, 16, 10, 8, 6, 5, 4, 2, 2, 1, 5, 5, 5, 4, 3, 3, 10, 9, 9, 8, 8, 8
 |28, 27, 26, 26, 26, 25, 23, 18, 17, 15, 10, 7, 25, 23, 21, 17, 15, 12, 20, 18, 15, 12, 10, 6, 14, 9, 9, 5, 5, 3, 14, 13, 13, 12, 11, 11, 18, 17, 15, 12, 8, 8, 14, 12, 10, 6, 4, 2, 29, 28, 27, 27, 26, 25, 10, 8, 7, 6, 5, 4, 20, 19, 15, 11, 9, 7, 23, 23, 22, 21, 23, 22, 7, 6, 6, 5, 5, 5, 23, 23, 22, 20, 19, 18, 22, 16, 15, 10, 6, 5, 14, 12, 9, 8, 7, 5, 27, 22, 16, 15, 13, 9, 14, 11, 10, 9, 8, 7, 27, 27, 26, 26, 26, 25, 16, 13, 12, 9, 7, 2, 17, 16, 13, 10, 8, 6, 14, 11, 9, 6, 3, 3, 23, 20, 17, 15, 13, 7, 25, 23, 23, 21, 21, 20, 26, 24, 22, 20, 18, 17, 24, 18, 17, 14, 9, 6, 23, 22, 17, 10, 6, 4, 15, 15, 15, 15, 15, 15, 28, 27, 26, 22, 20, 19, 30, 23, 17, 14, 12, 5, 26, 24, 23, 22, 20, 19, 16, 15, 14, 14, 13, 13, 24, 18, 14, 11, 7, 2, 22, 22, 21, 20, 21, 20, 25, 24, 23, 23, 23, 22, 19, 14, 14, 8, 5, 3, 24, 23, 20, 20, 17, 16, 26, 26, 25, 24, 23, 22, 20, 18, 17, 16, 15, 14, 17, 17, 14, 11, 10, 7, 22, 20, 20, 18, 17, 17, 9, 9, 6, 5, 2, 2, 25, 25, 25, 25, 25, 24, 24, 24, 23, 23, 22, 22, 22, 16, 13, 11, 9, 6, 13, 12, 8, 6, 5, 3, 15, 13, 12, 11, 8, 7, 24, 23, 22, 22, 21, 21, 8, 7, 6, 6, 6, 5, 26, 20, 18, 14, 13, 8|];